
Welcome to IBM(R) ILOG(R) CPLEX(R) Interactive Optimizer 22.1.1.0
  with Simplex, Mixed Integer & Barrier Optimizers
5725-A06 5725-A29 5724-Y48 5724-Y49 5724-Y54 5724-Y55 5655-Y21
Copyright IBM Corp. 1988, 2022.  All Rights Reserved.

Type 'help' for a list of available commands.
Type 'help' followed by a command name for more
information on commands.

CPLEX> Selected objective sense:  MINIMIZE
Selected objective  name:  00000000
Selected RHS        name:  RHS1
Selected bound      name:  BOUND
Problem 'ee.mps' read.
Read time = 0.03 sec. (3.14 ticks)
CPLEX> New value for time limit in seconds: 7200
CPLEX> New value for parallel optimization mode: -1
CPLEX> New value for default parallel thread count: 40
CPLEX> New value for mixed integer optimality gap tolerance: 1e-13
CPLEX> Version identifier: 22.1.1.0 | 2022-11-28 | 9160aff4d
CPXPARAM_Threads                                 40
CPXPARAM_Parallel                                -1
CPXPARAM_TimeLimit                               7200
CPXPARAM_MIP_Tolerances_MIPGap                   1e-13
Found incumbent of value 0.000000 after 0.00 sec. (0.31 ticks)
Tried aggregator 2 times.
MIP Presolve eliminated 517 rows and 3608 columns.
MIP Presolve modified 5664 coefficients.
Aggregator did 785 substitutions.
Reduced MIP has 3215 rows, 6810 columns, and 25107 nonzeros.
Reduced MIP has 6810 binaries, 0 generals, 0 SOSs, and 0 indicators.
Presolve time = 0.07 sec. (67.18 ticks)
Probing time = 0.03 sec. (5.11 ticks)
Tried aggregator 1 time.
Detecting symmetries...
Reduced MIP has 3215 rows, 6810 columns, and 25107 nonzeros.
Reduced MIP has 6810 binaries, 0 generals, 0 SOSs, and 0 indicators.
Presolve time = 0.02 sec. (19.07 ticks)
Probing time = 0.02 sec. (4.93 ticks)
Clique table members: 16290.
MIP emphasis: balance optimality and feasibility.
MIP search method: dynamic search.
Parallel mode: opportunistic, using up to 40 threads.
Root relaxation solution time = 0.08 sec. (66.59 ticks)

        Nodes                                         Cuts/
   Node  Left     Objective  IInf  Best Integer    Best Bound    ItCnt     Gap

*     0+    0                            0.0000  -1.31000e+13              --- 
      0     0  -1.30900e+13    31        0.0000  -1.30900e+13     1825     --- 
*     0+    0                      -1.30900e+13  -1.30900e+13             0.00%
*     0+    0                      -1.30900e+13  -1.30900e+13             0.00%
      0     0  -1.30900e+13   129  -1.30900e+13      Cuts: 44     2192    0.00%
      0     0  -1.30900e+13   183  -1.30900e+13      Cuts: 52     2308    0.00%
*     0+    0                      -1.30900e+13  -1.30900e+13             0.00%

Repeating presolve.
Tried aggregator 2 times.
MIP Presolve eliminated 1898 rows and 3909 columns.
MIP Presolve added 4 rows and 0 columns.
MIP Presolve modified 14 coefficients.
Aggregator did 401 substitutions.
Reduced MIP has 920 rows, 2459 columns, and 8447 nonzeros.
Reduced MIP has 2459 binaries, 0 generals, 0 SOSs, and 0 indicators.
Presolve time = 0.04 sec. (34.68 ticks)
Probing time = 0.00 sec. (3.17 ticks)
Tried aggregator 1 time.
Detecting symmetries...
Reduced MIP has 920 rows, 2459 columns, and 8447 nonzeros.
Reduced MIP has 2459 binaries, 0 generals, 0 SOSs, and 0 indicators.
Presolve time = 0.01 sec. (5.96 ticks)
Represolve time = 0.06 sec. (52.61 ticks)
Probing time = 0.00 sec. (3.12 ticks)
Clique table members: 5828.
MIP emphasis: balance optimality and feasibility.
MIP search method: dynamic search.
Parallel mode: opportunistic, using up to 40 threads.
Root relaxation solution time = 0.04 sec. (25.09 ticks)

        Nodes                                         Cuts/
   Node  Left     Objective  IInf  Best Integer    Best Bound    ItCnt     Gap

*     0+    0                      -1.30900e+13  -1.30900e+13             0.00%
      0     0  -1.30900e+13   103  -1.30900e+13  -1.30900e+13     3186    0.00%
      0     0  -1.30900e+13   119  -1.30900e+13     Cuts: 118     3496    0.00%
      0     0  -1.30900e+13   165  -1.30900e+13      Cuts: 60     3711    0.00%
      0     2  -1.30900e+13   151  -1.30900e+13  -1.30900e+13     3711    0.00%
Elapsed time = 1.42 sec. (1041.16 ticks, tree = 0.02 MB, solutions = 4)
*    19+   29                      -1.30900e+13  -1.30900e+13             0.00%

Clique cuts applied:  38
Cover cuts applied:  297
Flow cuts applied:  5
Mixed integer rounding cuts applied:  6
Zero-half cuts applied:  7
Lift and project cuts applied:  6
Gomory fractional cuts applied:  8

Root node processing (before b&c):
  Real time             =    1.17 sec. (1041.03 ticks)
Parallel b&c, 40 threads:
  Real time             =    0.70 sec. (189.44 ticks)
  Sync time (average)   =    0.31 sec.
  Wait time (average)   =    0.00 sec.
                          ------------
Total (root+branch&cut) =    1.86 sec. (1230.47 ticks)

Solution pool: 8 solutions saved.

MIP - Integer optimal solution:  Objective = -1.3089999989e+13
Solution time =    1.92 sec.  Iterations = 40092  Nodes = 464
Deterministic time = 1230.50 ticks  (641.64 ticks/sec)

CPLEX> Solution 'p9' written to file 'ee.sol'.
CPLEX> 